#######################



#######################
Set parameter TimeLimit to value 500
Set parameter SoftMemLimit to value 125
Set parameter MIPFocus to value 2
Set parameter LogFile to value 1003-MIPFocus2-Presolve1-TimeLimit500-k16x240-1.log
Set parameter Presolve to value 1
Set parameter Seed to value 11
Using license file /opt/gurobi/gurobi.lic

Gurobi Optimizer version 10.0.3 build v10.0.3rc0 (linux64)
Copyright (c) 2023, Gurobi Optimization, LLC

Read MPS format model from file /miplib2010/k16x240.mps.bz2
Reading time = 0.00 seconds
k16x240: 256 rows, 480 columns, 960 nonzeros

CPU model: Intel(R) Xeon(R) E-2388G CPU @ 3.20GHz, instruction set [SSE2|AVX|AVX2|AVX512]
Thread count: 8 physical cores, 16 logical processors, using up to 16 threads

Optimize a model with 256 rows, 480 columns and 960 nonzeros
Model fingerprint: 0x4e80885f
Variable types: 240 continuous, 240 integer (240 binary)
Coefficient statistics:
  Matrix range     [1e+00, 1e+03]
  Objective range  [1e+00, 1e+03]
  Bounds range     [1e+00, 1e+03]
  RHS range        [4e+00, 4e+02]
Found heuristic solution: objective 24175.000000
Presolve time: 0.00s
Presolved: 256 rows, 480 columns, 960 nonzeros
Variable types: 240 continuous, 240 integer (240 binary)

Root relaxation: objective 2.769838e+03, 51 iterations, 0.00 seconds (0.00 work units)

    Nodes    |    Current Node    |     Objective Bounds      |     Work
 Expl Unexpl |  Obj  Depth IntInf | Incumbent    BestBd   Gap | It/Node Time

     0     0 2769.83800    0   14 24175.0000 2769.83800  88.5%     -    0s
H    0     0                    11359.000000 2769.83800  75.6%     -    0s
H    0     0                    11195.000000 2769.83800  75.3%     -    0s
H    0     0                    11074.000000 8116.87580  26.7%     -    0s
     0     0 8116.87580    0   26 11074.0000 8116.87580  26.7%     -    0s
H    0     0                    10916.000000 8116.87580  25.6%     -    0s
     0     0 8588.30479    0   25 10916.0000 8588.30479  21.3%     -    0s
     0     0 8613.92228    0   22 10916.0000 8613.92228  21.1%     -    0s
H    0     0                    10806.000000 8715.02413  19.4%     -    0s
     0     0 8715.02413    0   17 10806.0000 8715.02413  19.4%     -    0s
H    0     0                    10748.000000 8715.02413  18.9%     -    0s
     0     0 8820.62566    0   19 10748.0000 8820.62566  17.9%     -    0s
     0     0 8843.10362    0   31 10748.0000 8843.10362  17.7%     -    0s
     0     0 8854.18044    0   37 10748.0000 8854.18044  17.6%     -    0s
     0     0 8856.90381    0   42 10748.0000 8856.90381  17.6%     -    0s
     0     0 9006.11632    0   42 10748.0000 9006.11632  16.2%     -    0s
     0     0 9055.43474    0   38 10748.0000 9055.43474  15.7%     -    0s
     0     0 9071.93013    0   38 10748.0000 9071.93013  15.6%     -    0s
     0     0 9072.75624    0   39 10748.0000 9072.75624  15.6%     -    0s
     0     0 9108.27074    0   38 10748.0000 9108.27074  15.3%     -    0s
     0     0 9108.27074    0   38 10748.0000 9108.27074  15.3%     -    0s
     0     2 9108.27074    0   38 10748.0000 9108.27074  15.3%     -    0s
H   31    40                    10681.000000 9183.12328  14.0%  46.3    0s
H  533   448                    10678.000000 9183.12328  14.0%  18.8    0s
H 1152   850                    10674.000000 9434.40900  11.6%  19.7    0s
 34081 14220 10293.3361   33   21 10674.0000 10005.5587  6.26%  24.4    5s
 80635 23581     cutoff   37      10674.0000 10182.9549  4.60%  25.2   10s
 122889 24191     cutoff   30      10674.0000 10303.2245  3.47%  25.6   15s
 165903 15412     cutoff   44      10674.0000 10436.1069  2.23%  25.6   20s

Cutting planes:
  Gomory: 2
  Lift-and-project: 10
  Cover: 105
  Implied bound: 34
  MIR: 176
  Flow cover: 320
  Flow path: 41
  Inf proof: 6
  Zero half: 14
  Network: 49
  Relax-and-lift: 3

Explored 195926 nodes (4757528 simplex iterations) in 22.69 seconds (28.18 work units)
Thread count was 16 (of 16 available processors)

Solution count 10: 10674 10678 10681 ... 24175

Optimal solution found (tolerance 1.00e-04)
Best objective 1.067400000000e+04, best bound 1.067400000000e+04, gap 0.0000%
